c Reduced graph for R50_1g generated by Cyril Grelier
p edge 42 94
e 1 12
e 1 15
e 1 18
e 1 20
e 1 26
e 2 9
e 2 25
e 2 27
e 2 30
e 2 35
e 3 9
e 3 19
e 3 20
e 3 24
e 4 15
e 4 16
e 4 20
e 4 25
e 5 15
e 5 17
e 5 24
e 5 41
e 6 11
e 6 32
e 6 34
e 6 40
e 7 15
e 7 20
e 7 35
e 7 37
e 8 10
e 8 38
e 9 30
e 9 34
e 9 38
e 10 15
e 10 28
e 10 31
e 10 37
e 11 27
e 11 28
e 11 34
e 11 39
e 12 18
e 12 19
e 12 35
e 13 15
e 13 24
e 13 26
e 13 36
e 14 18
e 14 25
e 14 36
e 15 24
e 15 42
e 16 21
e 16 22
e 16 26
e 16 33
e 16 39
e 16 42
e 17 26
e 17 31
e 17 34
e 17 35
e 17 39
e 18 28
e 18 35
e 19 21
e 19 27
e 19 34
e 21 27
e 21 40
e 22 30
e 22 40
e 23 29
e 23 37
e 23 38
e 24 29
e 24 36
e 24 39
e 25 26
e 25 36
e 27 36
e 28 37
e 29 32
e 29 36
e 31 41
e 32 34
e 33 34
e 33 42
e 35 36
e 35 38
e 40 41
